Maximize
  13 x0 - 27 x1 + 0 x2 + 36 x3 - 34 x4 - 43 x5 + 0 x6 + 0 x7 + 0 x8 + 0 x9
   + 0 x10 - 11 x11 + 31 x12 + 36 x13 + 0 x14 + 0 x15 + 0 x16 + 0 x17
   + 0 x18 + 3 x19 + 28 x20 - 43 x21 + 15 x22 + 34 x23 + 0 x24 + 3 x25
   + 22 x26 + 0 x27 - 29 x28 + 0 x29 + 20 x30 + 7 x31 + 6 x32 + 16 x33
   + 16 x34 + 0 x35 + 43 x36 - 36 x37 - 21 x38 + 11 x39 + [ - 86 x0 * x3
   + 42 x0 * x5 - 68 x0 * x6 + 6 x0 * x9 - 96 x0 * x11 + 86 x0 * x12
   + 20 x0 * x13 + 32 x0 * x16 - 20 x0 * x17 - 70 x0 * x20 - 40 x0 * x22
   + 70 x0 * x24 - 30 x0 * x25 - 52 x0 * x26 - 94 x0 * x27 - 46 x0 * x28
   + 46 x0 * x30 - 34 x0 * x33 + 22 x0 * x35 + 72 x0 * x36 + 52 x0 * x37
   - 42 x0 * x38 + 41 x1 ^2 + 88 x1 * x2 - 26 x1 * x3 + 50 x1 * x5
   - 22 x1 * x10 + 6 x1 * x13 + 58 x1 * x14 - 16 x1 * x16 - 84 x1 * x17
   - 44 x1 * x18 + 88 x1 * x19 + 56 x1 * x21 + 52 x1 * x22 - 76 x1 * x23
   - 64 x1 * x25 + 96 x1 * x27 - 48 x1 * x28 - 90 x1 * x29 + 80 x1 * x30
   - 58 x1 * x31 + 80 x1 * x32 - 78 x1 * x34 + 40 x1 * x35 + 22 x1 * x37
   - 16 x2 * x3 - 2 x2 * x4 + 28 x2 * x5 - 56 x2 * x7 - 80 x2 * x8
   - 82 x2 * x10 + 66 x2 * x11 - 84 x2 * x12 - 90 x2 * x18 - 68 x2 * x20
   - 70 x2 * x23 - 58 x2 * x26 - 58 x2 * x27 - 80 x2 * x29 - 18 x2 * x30
   + 98 x2 * x33 + 54 x2 * x35 - 80 x2 * x36 - 40 x2 * x38 + 43 x3 ^2
   - 92 x3 * x4 - 50 x3 * x5 + 44 x3 * x6 - 24 x3 * x7 - 56 x3 * x12
   - 52 x3 * x14 - 22 x3 * x15 - 62 x3 * x17 - 36 x3 * x20 + 30 x3 * x21
   + 16 x3 * x22 - 4 x3 * x23 + 24 x3 * x25 - 68 x3 * x26 - 4 x3 * x27
   + 26 x3 * x29 - 18 x3 * x31 - 50 x3 * x32 - 14 x3 * x33 + 76 x3 * x34
   - 2 x3 * x36 + 28 x3 * x37 - 38 x3 * x38 - 49 x4 ^2 - 98 x4 * x5
   - 34 x4 * x6 - 70 x4 * x8 - 98 x4 * x9 - 52 x4 * x10 + 36 x4 * x12
   - 98 x4 * x16 + 82 x4 * x17 + 76 x4 * x18 - 92 x4 * x21 - 12 x4 * x23
   - 2 x4 * x24 - 12 x4 * x26 + 68 x4 * x27 - 58 x4 * x28 + 24 x4 * x33
   + 40 x4 * x36 - 30 x4 * x37 + 70 x5 * x6 + 88 x5 * x13 - 34 x5 * x14
   + 90 x5 * x15 - 12 x5 * x16 + 86 x5 * x18 + 24 x5 * x20 + 74 x5 * x26
   + 28 x5 * x27 - 36 x5 * x29 + 22 x5 * x30 - 8 x5 * x31 + 30 x5 * x36
   - 10 x6 ^2 - 32 x6 * x7 - 94 x6 * x8 - 42 x6 * x9 + 74 x6 * x10
   - 40 x6 * x11 - 2 x6 * x16 + 34 x6 * x19 + 30 x6 * x20 + 92 x6 * x21
   - 84 x6 * x22 - 34 x6 * x23 + 76 x6 * x31 + 44 x6 * x32 - 70 x6 * x33
   - 90 x6 * x36 - 2 x6 * x37 - 74 x6 * x39 + 14 x7 ^2 - 86 x7 * x8
   + 38 x7 * x12 + 40 x7 * x14 + 90 x7 * x15 - 48 x7 * x17 - 94 x7 * x19
   + 54 x7 * x21 + 66 x7 * x23 - 2 x7 * x24 - 52 x7 * x26 + 22 x7 * x28
   - 96 x7 * x31 - 68 x7 * x33 + 54 x7 * x34 - 22 x7 * x35 + 86 x7 * x37
   + 82 x7 * x39 - 13 x8 ^2 + 26 x8 * x11 - 12 x8 * x13 - 46 x8 * x18
   - 32 x8 * x19 - 6 x8 * x21 - 96 x8 * x23 - 42 x8 * x24 + 10 x8 * x26
   + 18 x8 * x27 + 88 x8 * x28 + 78 x8 * x29 - 28 x8 * x31 - 42 x8 * x32
   + 46 x8 * x34 - 18 x8 * x35 + 78 x8 * x38 - 74 x8 * x39 - 16 x9 * x11
   - 6 x9 * x12 - 36 x9 * x13 - 90 x9 * x15 + 20 x9 * x16 - 58 x9 * x18
   + 68 x9 * x21 - 62 x9 * x22 - 74 x9 * x23 - 98 x9 * x24 + 22 x9 * x25
   + 24 x9 * x26 - 36 x9 * x29 - 88 x9 * x31 - 54 x9 * x32 + 22 x9 * x35
   + 54 x9 * x37 + 9 x10 ^2 + 76 x10 * x12 - 20 x10 * x13 - 74 x10 * x14
   + 50 x10 * x15 + 82 x10 * x16 + 16 x10 * x17 - 2 x10 * x18
   - 98 x10 * x24 - 42 x10 * x25 + 56 x10 * x27 + 2 x10 * x29
   - 28 x10 * x30 + 18 x10 * x31 + 20 x10 * x33 + 82 x10 * x35
   - 40 x10 * x38 + 3 x11 ^2 - 98 x11 * x13 + 80 x11 * x14 + 76 x11 * x17
   - 52 x11 * x18 - 4 x11 * x19 - 82 x11 * x20 - 32 x11 * x21
   + 84 x11 * x23 + 40 x11 * x28 - 68 x11 * x29 - 74 x11 * x30
   + 48 x11 * x31 + 46 x11 * x32 + 4 x11 * x34 - 62 x11 * x35 - 2 x11 * x36
   + 32 x11 * x39 - 4 x12 * x13 - 12 x12 * x15 - 28 x12 * x17
   + 58 x12 * x20 - 94 x12 * x21 + 80 x12 * x22 + 22 x12 * x24
   + 80 x12 * x25 - 46 x12 * x26 - 50 x12 * x27 - 84 x12 * x28
   + 74 x12 * x29 + 24 x12 * x30 - 32 x12 * x31 - 16 x12 * x32
   - 20 x12 * x33 + 82 x12 * x35 - 72 x12 * x37 + 38 x13 * x14
   + 32 x13 * x15 + 58 x13 * x17 + 28 x13 * x18 + 26 x13 * x19
   - 4 x13 * x20 + 22 x13 * x21 - 20 x13 * x22 - 34 x13 * x23
   - 34 x13 * x24 - 16 x13 * x26 - 32 x13 * x27 - 8 x13 * x30
   + 62 x13 * x34 + 78 x13 * x35 + 92 x13 * x36 - 76 x13 * x37 - 21 x14 ^2
   - 70 x14 * x15 + 60 x14 * x17 - 32 x14 * x19 + 84 x14 * x20
   - 50 x14 * x22 + 14 x14 * x23 - 70 x14 * x24 + 80 x14 * x25
   - 80 x14 * x26 + 74 x14 * x27 - 86 x14 * x28 - 86 x14 * x30
   + 52 x14 * x31 + 68 x14 * x32 - 34 x14 * x33 + 12 x14 * x35
   - 34 x14 * x36 - 54 x14 * x38 + 62 x15 * x16 - 84 x15 * x21
   - 98 x15 * x23 - 46 x15 * x24 + 58 x15 * x26 + 48 x15 * x27
   - 62 x15 * x29 + 48 x15 * x30 + 50 x15 * x32 - 72 x15 * x34
   - 94 x15 * x35 - 52 x15 * x36 + 48 x15 * x39 + 7 x16 ^2 + 28 x16 * x18
   - 84 x16 * x22 + 44 x16 * x23 + 66 x16 * x24 - 32 x16 * x25
   - 38 x16 * x26 - 66 x16 * x27 + 16 x16 * x28 + 12 x16 * x29
   + 30 x16 * x30 - 20 x16 * x31 + 52 x16 * x33 - 58 x16 * x35
   - 72 x16 * x36 - 64 x16 * x37 - 78 x16 * x38 - 33 x17 ^2 - 70 x17 * x18
   - 52 x17 * x19 + 40 x17 * x21 - 6 x17 * x22 + 52 x17 * x23
   - 44 x17 * x27 + 72 x17 * x28 - 70 x17 * x29 + 10 x17 * x30
   + 32 x17 * x32 - 80 x17 * x33 - 94 x17 * x35 + 74 x17 * x36
   - 12 x17 * x37 - 70 x17 * x38 + 70 x17 * x39 - 16 x18 ^2 + 70 x18 * x19
   - 70 x18 * x23 - 38 x18 * x24 + 30 x18 * x25 - 42 x18 * x27
   + 88 x18 * x28 + 38 x18 * x30 - 98 x18 * x32 + 96 x18 * x33
   + 32 x18 * x34 - 48 x18 * x35 - 92 x18 * x36 + 56 x18 * x37
   - 94 x19 * x20 - 88 x19 * x21 - 60 x19 * x22 - 94 x19 * x23
   + 22 x19 * x26 - 26 x19 * x27 + 68 x19 * x28 + 26 x19 * x29
   + 78 x19 * x30 + 80 x19 * x32 - 46 x19 * x34 + 26 x19 * x35
   - 98 x19 * x38 - 20 x19 * x39 + 88 x20 * x21 + 18 x20 * x23
   - 14 x20 * x24 - 82 x20 * x25 + 38 x20 * x27 + 64 x20 * x28
   + 76 x20 * x33 + 14 x20 * x35 + 40 x20 * x37 - 30 x20 * x38 - 33 x21 ^2
   - 12 x21 * x22 + 12 x21 * x23 - 28 x21 * x25 + 28 x21 * x27
   + 20 x21 * x29 + 76 x21 * x31 + 72 x21 * x36 + 62 x21 * x37
   - 58 x21 * x39 - 10 x22 ^2 - 40 x22 * x24 + 56 x22 * x25 + 14 x22 * x26
   - 56 x22 * x29 - 72 x22 * x31 + 30 x22 * x32 - 54 x22 * x33
   + 90 x22 * x34 - 6 x22 * x35 - 56 x22 * x36 - 70 x22 * x39 - 32 x23 ^2
   + 52 x23 * x28 - 16 x23 * x29 + 52 x23 * x31 + 82 x23 * x33
   + 28 x23 * x35 + 36 x23 * x38 + 60 x23 * x39 - 45 x24 ^2 - 2 x24 * x25
   - 16 x24 * x26 - 94 x24 * x27 + 54 x24 * x28 + 56 x24 * x29
   - 78 x24 * x30 + 12 x24 * x31 - 42 x24 * x33 - 98 x24 * x34
   + 34 x24 * x35 + 98 x24 * x36 + 48 x24 * x38 - 68 x24 * x39
   - 64 x25 * x28 + 88 x25 * x30 - 60 x25 * x31 + 84 x25 * x32
   - 22 x25 * x33 + 34 x25 * x34 - 22 x25 * x35 + 2 x25 * x36
   + 98 x25 * x38 + 98 x25 * x39 + 37 x26 ^2 + 80 x26 * x27 + 92 x26 * x30
   - 34 x26 * x31 - 20 x26 * x32 + 46 x26 * x34 + 90 x26 * x35
   - 6 x26 * x36 - 64 x26 * x38 + 80 x26 * x39 - 39 x27 ^2 + 74 x27 * x29
   + 82 x27 * x31 + 36 x27 * x34 + 52 x27 * x37 + 30 x27 * x38
   - 46 x27 * x39 - 5 x28 ^2 + 88 x28 * x29 - 94 x28 * x33 - 22 x28 * x34
   + 12 x28 * x35 + 88 x28 * x36 - 14 x28 * x38 - 35 x29 ^2 + 16 x29 * x32
   - 50 x29 * x33 - 46 x29 * x36 + 38 x29 * x38 + 26 x30 ^2 + 26 x30 * x32
   - 26 x30 * x35 - 8 x30 * x37 - 48 x30 * x38 + 40 x30 * x39
   - 34 x31 * x34 + 36 x31 * x35 + 92 x31 * x38 + 94 x32 * x34
   - 72 x32 * x36 - 76 x32 * x37 + 32 x32 * x38 + 90 x32 * x39
   - 72 x33 * x34 - 60 x33 * x36 + 60 x33 * x37 - 18 x33 * x39 - 4 x34 ^2
   + 41 x35 ^2 - 84 x35 * x36 + 98 x35 * x37 - 49 x36 ^2 + 98 x36 * x38
   + 2 x36 * x39 - 56 x37 * x39 + 27 x38 ^2 - 39 x39 ^2 ] / 2 
Subject To
Bounds
 x0 <= 1
 x1 <= 1
 x2 <= 1
 x3 <= 1
 x4 <= 1
 x5 <= 1
 x6 <= 1
 x7 <= 1
 x8 <= 1
 x9 <= 1
 x10 <= 1
 x11 <= 1
 x12 <= 1
 x13 <= 1
 x14 <= 1
 x15 <= 1
 x16 <= 1
 x17 <= 1
 x18 <= 1
 x19 <= 1
 x20 <= 1
 x21 <= 1
 x22 <= 1
 x23 <= 1
 x24 <= 1
 x25 <= 1
 x26 <= 1
 x27 <= 1
 x28 <= 1
 x29 <= 1
 x30 <= 1
 x31 <= 1
 x32 <= 1
 x33 <= 1
 x34 <= 1
 x35 <= 1
 x36 <= 1
 x37 <= 1
 x38 <= 1
 x39 <= 1
End
